p wcnf 138 69 70 
1 -82 63 0 
1 -22 66 0 
1 -46 48 0 
1 -24 -107 0 
1 5 62 0 
1 -83 -8 0 
1 -87 -15 0 
1 -21 121 0 
1 132 -22 0 
1 -90 125 0 
1 46 -21 0 
1 121 108 0 
1 -106 71 0 
1 42 64 0 
1 -91 -75 0 
1 -17 70 0 
1 -31 57 0 
1 -89 57 0 
1 95 134 0 
1 47 87 0 
1 -106 -53 0 
1 69 -4 0 
1 75 132 0 
1 -90 127 0 
1 10 95 0 
1 -2 99 0 
1 129 -128 0 
1 42 121 0 
1 53 88 0 
1 -112 -128 0 
1 -106 -88 0 
1 60 88 0 
1 125 100 0 
1 99 -92 0 
1 26 41 0 
1 -115 6 0 
1 134 -123 0 
1 44 62 0 
1 -48 43 0 
1 -3 -116 0 
1 -61 109 0 
1 117 -137 0 
1 87 12 0 
1 128 -72 0 
1 -124 30 0 
1 -21 -15 0 
1 -15 -40 0 
1 37 62 0 
1 92 -67 0 
1 48 118 0 
1 24 -15 0 
1 130 18 0 
1 120 -53 0 
1 -9 117 0 
1 84 131 0 
1 99 -37 0 
1 -113 137 0 
1 -63 -17 0 
1 78 -57 0 
1 -42 -61 0 
1 -20 -17 0 
1 88 132 0 
1 136 -33 0 
1 49 14 0 
1 39 -86 0 
1 -28 -88 0 
1 -59 60 0 
1 -87 -132 0 
1 77 66 0 
